Please solve the following SAT Problem encoded in DIMACS format, only return a single solution assignment without explanations, if there is any: 
p cnf 10 50
1 8 -3 0
-4 5 -3 0
5 -4 6 0
-4 6 10 0
-7 9 6 0
5 9 1 0
-4 10 -1 0
2 4 -7 0
4 9 1 0
-7 5 10 0
-3 8 -4 0
-7 10 3 0
-3 5 1 0
6 -7 2 0
10 -9 8 0
1 8 5 0
-10 7 -3 0
6 -3 4 0
-3 1 6 0
5 -7 3 0
8 1 9 0
-2 6 -3 0
8 7 -3 0
5 7 10 0
8 6 5 0
10 -4 6 0
9 5 2 0
6 9 -5 0
3 9 2 0
2 9 -7 0
-7 2 5 0
4 -3 2 0
6 10 -5 0
1 9 7 0
9 -3 -7 0
10 -2 -4 0
-3 -4 6 0
5 4 -10 0
5 -2 -4 0
8 -7 10 0
-4 -7 6 0
2 5 8 0
-6 -9 10 0
-7 6 -1 0
5 1 3 0
8 -9 10 0
8 1 5 0
5 -3 2 0
9 10 6 0
-3 -2 -7 0

